NAME: unnamed
COMMENT: Optimal Solution for unnamed(3921)
TYPE: TOUR
DIMENSION: 60
TOUR SECTION
34 41 43 46 13 32 37 23 11 39 20 29 40 21 25 24 1 51 15 36 9 8 0 3 47 52 57 18 26 19 7 31 54 56 17 45 16 42 12 49 30 55 14 5 6 53 4 27 2 50 38 44 28 48 22 35 10 33 58 59 
EOF
